MacMPEC/Problems/water-net.nl
g3 0 1 0	# problem tmp
 66 50 1 0 36	# vars, constraints, objectives, ranges, eqns
 14 1 14 0	# nonlinear constrs, objs; ccons: lin, nonlin
 0 0	# network constraints: nonlinear, linear
 42 46 14	# nonlinear vars in constraints, objectives, both
 0 0 0 1	# linear network variables; functions; arith, flags
 0 0 0 0 0	# discrete variables: binary, integer, nonlinear (b,c,o)
 170 46	# nonzeros in Jacobian, gradients
 0 0	# max name lengths: constraints, variables
 0 0 0 0 0	# common exprs: b,c,o,c1,o1
C0
o16
o3
o2
n1.3200485786515588
o1
o5
v14
n2
o5
v28
n2
o5
v0
n5.33
C1
o16
o3
o2
n1.572226764814796
o1
o5
v15
n2
o5
v29
n2
o5
v1
n5.33
C2
o16
o3
o2
n2.577059176658542
o1
o5
v16
n2
o5
v30
n2
o5
v2
n5.33
C3
o16
o3
o2
n1.3741913986050127
o1
o5
v17
n2
o5
v31
n2
o5
v3
n5.33
C4
o16
o3
o2
n2.062573392633581
o1
o5
v18
n2
o5
v32
n2
o5
v4
n5.33
C5
o16
o3
o2
n2.4023521806762638
o1
o5
v19
n2
o5
v33
n2
o5
v5
n5.33
C6
o16
o3
o2
n1.3390000000000002
o1
o5
v20
n2
o5
v34
n2
o5
v6
n5.33
C7
o16
o3
o2
n1.2916134290103987
o1
o5
v21
n2
o5
v35
n2
o5
v7
n5.33
C8
o16
o3
o2
n1.6023039661687168
o1
o5
v22
n2
o5
v36
n2
o5
v8
n5.33
C9
o16
o3
o2
n1.3390000000000002
o1
o5
v23
n2
o5
v37
n2
o5
v9
n5.33
C10
o16
o3
o2
n2.143291160808536
o1
o5
v24
n2
o5
v38
n2
o5
v10
n5.33
C11
o16
o3
o2
n2.062573392633581
o1
o5
v25
n2
o5
v39
n2
o5
v11
n5.33
C12
o16
o3
o2
n1.151575008412392
o1
o5
v26
n2
o5
v40
n2
o5
v12
n5.33
C13
o16
o3
o2
n1.245618822112126
o1
o5
v27
n2
o5
v41
n2
o5
v13
n5.33
C14
n0
C15
n0
C16
n0
C17
n0
C18
n0
C19
n0
C20
n0
C21
n0
C22
n0
C23
n0
C24
n0
C25
n0
C26
n0
C27
n0
C28
n0
C29
n0
C30
n0
C31
n0
C32
n0
C33
n0
C34
n0
C35
n0
C36
n0
C37
n0
C38
n0
C39
n0
C40
n0
C41
n0
C42
n0
C43
n0
C44
n0
C45
n0
C46
n0
C47
n0
C48
n0
C49
n0
O0 0
o54
16
o2
n10
o2
o2
n1.02
v44
o0
n-6.5
v42
o2
n10
o2
o2
n1.02
v45
o0
n-3.25
v43
o2
n88.43043876403647
o5
v0
n1.29
o2
n105.32392890506887
o5
v1
n1.29
o2
n172.6379448441159
o5
v2
n1.29
o2
n92.05748204247172
o5
v3
n1.29
o2
n138.17239232205543
o5
v4
n1.29
o2
n160.9342722977303
o5
v5
n1.29
o2
n89.7
o5
v6
n1.29
o2
n86.52555980749273
o5
v7
n1.29
o2
n107.33880938411792
o5
v8
n1.29
o2
n89.7
o5
v9
n1.29
o2
n143.5796991221252
o5
v10
n1.29
o2
n138.17239232205543
o5
v11
n1.29
o2
n77.14434522374276
o5
v12
n1.29
o2
n83.44436769488999
o5
v13
n1.29
x24
0 0.5477225575051661
1 0.5477225575051661
2 0.5477225575051661
3 0.5477225575051661
4 0.5477225575051661
5 0.5477225575051661
6 0.5477225575051661
7 0.5477225575051661
8 0.5477225575051661
9 0.5477225575051661
10 0.5477225575051661
11 0.5477225575051661
12 0.5477225575051661
13 0.5477225575051661
42 11.5
43 8.25
44 0.9614705882352941
45 2.3075294117647056
46 21.58
47 19.92
48 17.925
49 17.259999999999998
50 13.76
51 21.080000000000002
r
4 0
4 0
4 0
4 0
4 0
4 0
4 0
4 0
4 0
4 0
4 0
4 0
4 0
4 0
4 0
4 0
4 1.212
4 0.452
4 0.245
4 0.652
4 0.252
4 0.456
4 0
5 1 53
4 0
5 1 54
4 0
5 1 55
4 0
5 1 56
4 0
5 1 57
4 0
5 1 58
4 0
5 1 59
4 0
5 1 60
4 0
5 1 61
4 0
5 1 62
4 0
5 1 63
4 0
5 1 64
4 0
5 1 65
4 0
5 1 66
b
0 0.15 2
0 0.15 2
0 0.15 2
0 0.15 2
0 0.15 2
0 0.15 2
0 0.15 2
0 0.15 2
0 0.15 2
0 0.15 2
0 0.15 2
0 0.15 2
0 0.15 2
0 0.15 2
0 0 2
0 0 2
0 0 2
0 0 2
0 0 2
0 0 2
0 0 2
0 0 2
0 0 2
0 0 2
0 0 2
0 0 2
0 0 2
0 0 2
0 0 2
0 0 2
0 0 2
0 0 2
0 0 2
0 0 2
0 0 2
0 0 2
0 0 2
0 0 2
0 0 2
0 0 2
0 0 2
0 0 2
2 6.5
2 3.25
0 0 2.5
0 0 6
2 16.58
2 14.92
2 12.925
2 12.26
2 8.76
2 16.080000000000002
2 0
2 0
2 0
2 0
2 0
2 0
2 0
2 0
2 0
2 0
2 0
2 0
2 0
2 0
k65
1
2
3
4
5
6
7
8
9
10
11
12
13
14
18
22
26
30
34
38
42
46
50
54
58
62
66
70
74
78
82
86
90
94
98
102
106
110
114
118
122
126
129
133
134
135
141
144
147
151
153
156
157
158
159
160
161
162
163
164
165
166
167
168
169
J0 5
0 0
14 0
28 0
42 1
47 -1
J1 5
1 0
15 0
29 0
42 1
46 -1
J2 5
2 0
16 0
30 0
42 1
51 -1
J3 5
3 0
17 0
31 0
43 1
51 -1
J4 5
4 0
18 0
32 0
43 1
46 -1
J5 5
5 0
19 0
33 0
43 1
49 -1
J6 5
6 0
20 0
34 0
43 1
50 -1
J7 5
7 0
21 0
35 0
46 1
47 -1
J8 5
8 0
22 0
36 0
46 1
48 -1
J9 5
9 0
23 0
37 0
46 1
49 -1
J10 5
10 0
24 0
38 0
46 1
51 -1
J11 5
11 0
25 0
39 0
49 1
50 -1
J12 5
12 0
26 0
40 0
48 -1
49 1
J13 5
13 0
27 0
41 0
47 -1
48 1
J14 7
14 -1
15 -1
16 -1
28 1
29 1
30 1
44 1
J15 9
17 -1
18 -1
19 -1
20 -1
31 1
32 1
33 1
34 1
45 1
J16 12
15 1
18 1
21 -1
22 -1
23 -1
24 -1
29 -1
32 -1
35 1
36 1
37 1
38 1
J17 6
14 1
21 1
27 1
28 -1
35 -1
41 -1
J18 6
22 1
26 1
27 -1
36 -1
40 -1
41 1
J19 8
19 1
23 1
25 -1
26 -1
33 -1
37 -1
39 1
40 1
J20 4
20 1
25 1
34 -1
39 -1
J21 6
16 1
17 1
24 1
30 -1
31 -1
38 -1
J22 2
14 -1
52 1
J23 1
28 1
J24 2
15 -1
53 1
J25 1
29 1
J26 2
16 -1
54 1
J27 1
30 1
J28 2
17 -1
55 1
J29 1
31 1
J30 2
18 -1
56 1
J31 1
32 1
J32 2
19 -1
57 1
J33 1
33 1
J34 2
20 -1
58 1
J35 1
34 1
J36 2
21 -1
59 1
J37 1
35 1
J38 2
22 -1
60 1
J39 1
36 1
J40 2
23 -1
61 1
J41 1
37 1
J42 2
24 -1
62 1
J43 1
38 1
J44 2
25 -1
63 1
J45 1
39 1
J46 2
26 -1
64 1
J47 1
40 1
J48 2
27 -1
65 1
J49 1
41 1
G0 46
0 0
1 0
2 0
3 0
4 0
5 0
6 0
7 0
8 0
9 0
10 0
11 0
12 0
13 0
14 1
15 1
16 1
17 1
18 1
19 1
20 1
21 1
22 1
23 1
24 1
25 1
26 1
27 1
28 1
29 1
30 1
31 1
32 1
33 1
34 1
35 1
36 1
37 1
38 1
39 1
40 1
41 1
42 0
43 0
44 2
45 1.7000000000000002
